1
11 55
0 1 7
0 2 3
0 3 9
0 4 10
0 5 2
0 6 2
0 7 0
0 8 3
0 9 1
0 10 9
1 2 8
1 3 10
1 4 3
1 5 8
1 6 1
1 7 2
1 8 6
1 9 1
1 10 0
2 3 3
2 4 4
2 5 10
2 6 1
2 7 7
2 8 5
2 9 4
2 10 7
3 4 7
3 5 2
3 6 5
3 7 1
3 8 10
3 9 4
3 10 9
4 5 10
4 6 3
4 7 9
4 8 9
4 9 10
4 10 3
5 6 10
5 7 5
5 8 2
5 9 8
5 10 6
6 7 10
6 8 3
6 9 4
6 10 1
7 8 1
7 9 8
7 10 2
8 9 3
8 10 8
9 10 2